840242
69,75,6,41,18,77,96,30,21,20,9,33,57,47,95,66,4,7,73,25,78,51,79,29,40,94,26,17,12,19,24,59,90,71,34,46,28,11,23,98,54,65,52,43,22,84,92,39,14,81,86,45,87,76,38,99,68,80,48,1,37,74,70,32,60,31,62,93,13,63,72,36,50,88,83,15,16,61,58,82,67,35,42,97,2,27,64,5,3,85,89,8,53,91,44,55,49,56,10,69